CMPL model generation - running

CMPL version: 1.11.0
Authors: Thomas Schleiff, Mike Steglich
Distributed under the GPLv3 

create model instance ...
write model instance ...
CMPL model generation - finished

Solver - running


Welcome to IBM(R) ILOG(R) CPLEX(R) Interactive Optimizer 12.7.1.0
  with Simplex, Mixed Integer & Barrier Optimizers
5725-A06 5725-A29 5724-Y48 5724-Y49 5724-Y54 5724-Y55 5655-Y21
Copyright IBM Corp. 1988, 2017.  All Rights Reserved.

Type 'help' for a list of available commands.
Type 'help' followed by a command name for more
information on commands.

CPLEX> Specified objective sense: MINIMIZE
Selected objective  name:  line[1]
Selected RHS        name:  RHS
Selected bound      name:  BOUND
Problem '/tmp/cmpl.T24795.mps' read.
Read time = 0.09 sec. (10.16 ticks)
CPLEX> CPXPARAM_Read_APIEncoding                        "UTF-8"
Tried aggregator 3 times.
MIP Presolve eliminated 23620 rows and 36816 columns.
MIP Presolve modified 425 coefficients.
Aggregator did 1117 substitutions.
Reduced MIP has 3185 rows, 4522 columns, and 13380 nonzeros.
Reduced MIP has 4312 binaries, 0 generals, 0 SOSs, and 0 indicators.
Presolve time = 0.08 sec. (51.16 ticks)
Found incumbent of value 3355.072378 after 0.17 sec. (96.44 ticks)
Probing time = 0.01 sec. (2.87 ticks)
Tried aggregator 1 time.
MIP Presolve eliminated 0 rows and 6 columns.
Reduced MIP has 3185 rows, 4516 columns, and 13368 nonzeros.
Reduced MIP has 4516 binaries, 0 generals, 0 SOSs, and 0 indicators.
Presolve time = 0.02 sec. (11.00 ticks)
Probing time = 0.03 sec. (2.96 ticks)
Clique table members: 4360.
MIP emphasis: balance optimality and feasibility.
MIP search method: dynamic search.
Parallel mode: none, using 1 thread.
Root relaxation solution time = 0.08 sec. (14.07 ticks)

        Nodes                                         Cuts/
   Node  Left     Objective  IInf  Best Integer    Best Bound    ItCnt     Gap

*     0+    0                         3355.0724        0.0000           100.00%
*     0     0      integral     0      928.0793      928.0793      709    0.00%
Elapsed time = 0.34 sec. (136.42 ticks, tree = 0.00 MB, solutions = 2)

Root node processing (before b&c):
  Real time             =    0.36 sec. (138.01 ticks)
Sequential b&c:
  Real time             =    0.00 sec. (0.00 ticks)
                          ------------
Total (root+branch&cut) =    0.36 sec. (138.01 ticks)

Solution pool: 2 solutions saved.

MIP - Integer optimal solution:  Objective =  9.2807925400e+02
Solution time =    0.36 sec.  Iterations = 709  Nodes = 0
Deterministic time = 138.13 ticks  (384.44 ticks/sec)

CPLEX> Incumbent solution written to file '/tmp/cmpl.T24795.gsol'.
CPLEX> 
CMPL: Time used for model generation: 1 seconds
CMPL: Time used for solving the model: 2 seconds


Solution written to ASCII file: results/output_generated_conf_0.9/2016-10-03-5/fair-nonlinear.sol

Solver - finished
